HUN,8,6,515
4,23,3,21,2,28,5,25,0,22,1,25
5,21,1,24,4,24,0,23,3,27,2,29
5,29,4,21,2,27,0,24,3,23,1,25
3,30,2,21,0,23,4,25,1,26,5,25
1,26,5,27,4,30,0,29,2,22,3,28
3,30,2,25,5,30,1,24,4,21,0,21
3,29,0,22,5,29,4,29,2,25,1,28
2,28,5,23,0,28,4,25,3,26,1,29
